78
49
80
75
7
69
53
46
76
13
82
26
67
87
57
98
85
8
83
45
28
90
29
36
73
14
94
81
48
74
39
68
40
11
65
77
10
15
21
19
61
51
2
6
72
9
33
58
60
79
42
43
97
18
1
89
96
62
3
99
63
66
22
70
4
31
38
0
24
37
35
52
50
54
27
95
59
47
64
55
16
71
30
41
93
25
20
23
88
56
84
91
86
92
5
12
34
44
17
32
